#
# MOR03_c2h4 M06-D3/Def2-TZVPPD
#
! m06 d3zero def2-tzvppd def2/jk grid4 nofinalgrid

*xyz 0 1
C        0.000000    0.665348   -0.000001 
C        0.000000   -0.665348   -0.000001 
H       -0.924311    1.237390    0.000003 
H        0.924311    1.237390    0.000003 
H        0.924311   -1.237390    0.000003 
H       -0.924311   -1.237390    0.000003 
*

%maxcore 5000

%pal
nprocs = 28
end

