#
# MOR19_h2 M06-D3/Def2-TZVPPD
#
! m06 d3zero def2-tzvppd def2/jk grid4 nofinalgrid

*xyz 0 1
H        0.000000    0.000000    0.371761 
H        0.000000    0.000000   -0.371761 
*

%maxcore 5000

%pal
nprocs = 24
end

