#
# MOR12_ed18 M06-D3/Def2-TZVPPD
#
! m06 d3zero def2-tzvppd def2/jk grid4 nofinalgrid

*xyz 0 1
Ir       0.000009    0.119441   -0.001134 
P        2.313164   -0.026854    0.000864 
C        3.266155    1.538041    0.001301 
C        2.990776   -0.938546    1.437922 
H        4.076753   -1.056364    1.355244 
H        4.080827   -1.059585   -1.345638 
H        2.508332   -1.918605    1.474823 
H        2.511934   -1.920062   -1.470843 
H        3.000883    2.123603    0.885753 
H        2.748975   -0.395301    2.355327 
C        2.995346   -0.940504   -1.432774 
H        4.343510    1.342437    0.003886 
H        2.757870   -0.397739   -2.351580 
H        3.004825    2.121649   -0.885628 
P       -2.313239   -0.026297    0.000821 
C       -3.266059    1.538685   -0.001751 
C       -2.995240   -0.942628   -1.431183 
H       -2.509974   -1.915937    1.477317 
H       -4.077346   -1.051885    1.357522 
H       -2.748166   -0.391240    2.356043 
C       -2.991181   -0.935299    1.439450 
H       -2.510085   -1.921339   -1.468610 
H       -4.080420   -1.063528   -1.342825 
H       -4.343438    1.343207   -0.001601 
H       -3.002541    2.121837   -0.888321 
H       -2.759672   -0.400400   -2.350803 
H       -3.002807    2.124611    0.883073 
C        0.000649    1.940082   -0.001490 
O        0.001240    3.110505   -0.001979 
Cl      -0.000683   -2.266357   -0.002005 
*

%maxcore 5000

%pal
nprocs = 28
end

