#
# MOR11_ed11 M06-D3/Def2-TZVPPD
#
! m06 d3zero def2-tzvppd def2/jk grid4 nofinalgrid

*xyz 0 1
C       -0.215143    2.474912    0.000943 
C        0.405007    3.719049    0.001069 
C        1.797844    3.776033    0.000678 
C        2.518886    2.587780    0.000166 
H       -1.296303    2.357179    0.001183 
H       -0.198474    4.620568    0.001502 
H        2.316345    4.729851    0.000789 
H        3.602578    2.611029   -0.000041 
N        0.477795    1.324684    0.000439 
C        1.835277    1.367244    0.000057 
C        2.509992    0.059887   -0.000357 
N        1.694840   -1.036421    0.000876 
C        2.257001   -2.260308    0.000535 
C        4.472096   -1.347919   -0.002398 
C        3.629983   -2.459360   -0.001050 
H        1.562821   -3.092687    0.001515 
H        4.023772   -3.470102   -0.001337 
C        3.900751   -0.081941   -0.002040 
H        4.532932    0.798314   -0.003223 
H        5.551118   -1.464051   -0.003853 
Pd      -0.336917   -0.654572    0.001071 
C       -0.858975   -2.626404    0.002691 
H       -0.413078   -3.060930    0.907026 
H       -0.415091   -3.062278   -0.901950 
H       -1.933716   -2.807010    0.004117 
I       -2.840745   -0.024929   -0.001244 
*

%maxcore 5000

%pal
nprocs = 28
end

