#
# MOR24_pme3 M06-D3/Def2-TZVPPD
#
! m06 d3zero def2-tzvppd def2/jk grid4 nofinalgrid

*xyz 0 1
P        0.000014   -0.000022   -0.608033 
C        1.496142   -0.644859    0.281510 
H        1.381991   -0.595756    1.371521 
H        2.374450   -0.059896   -0.010082 
H        1.674284   -1.684941   -0.010215 
C       -0.189596    1.618079    0.281483 
H       -0.175035    1.494773    1.371519 
H       -1.135286    2.086341   -0.010098 
H        0.622176    2.292253   -0.010285 
C       -1.306577   -0.973225    0.281488 
H       -1.206743   -0.899098    1.371498 
H       -1.239562   -2.026308   -0.010273 
H       -2.296301   -0.607013   -0.009976 
*

%maxcore 5000

%pal
nprocs = 28
end

