#
# MOR20_i2 M06-D3/Def2-TZVPPD
#
! m06 d3zero def2-tzvppd def2/jk grid4 nofinalgrid

*xyz 0 1
I        0.000000    0.000000    1.341554 
I        0.000000    0.000000   -1.341554 
*

%maxcore 5000

%pal
nprocs = 24
end

