#
# MOR32_pr24 M06-D3/Def2-TZVPPD
#
! m06 d3zero def2-tzvppd def2/jk grid4 nofinalgrid

*xyz 0 1
Ru      -0.035996    0.034860    0.082543 
Cl      -0.046084    0.871757    2.345511 
Cl      -0.082643   -0.251281   -2.306106 
P       -2.405323    0.249423   -0.008266 
P        2.300479    0.500232    0.027120 
C        0.001116   -1.667940    0.791644 
C       -3.255846   -0.779963   -1.294051 
C       -2.848942   -2.261368   -1.266946 
C       -3.398876   -2.981786   -2.504110 
C       -4.922426   -2.832890   -2.605932 
C       -5.334793   -1.354942   -2.599361 
C       -4.783534   -0.625210   -1.364170 
C       -3.221066    0.016621    1.646329 
C       -3.348995   -1.470437    2.019056 
C       -3.732199   -1.618671    3.497042 
C       -5.044413   -0.882663    3.794982 
C       -4.956693    0.590347    3.377119 
C       -4.553785    0.742878    1.900810 
C       -2.872230    1.986345   -0.490087 
C       -2.163115    2.999849    0.426175 
C       -2.589715    4.435693    0.098539 
C       -2.349950    4.766466   -1.379652 
C       -3.040574    3.746983   -2.291650 
C       -2.600840    2.312116   -1.968413 
C        2.519347    2.324736   -0.285054 
C        1.604869    2.748196   -1.448818 
C        1.787837    4.229913   -1.795185 
C        1.561334    5.119211   -0.566690 
C        2.462330    4.689729    0.595848 
C        2.262837    3.208486    0.946936 
C        3.214610   -0.313206   -1.376422 
C        4.389580    0.450522   -2.011230 
C        4.896121   -0.301604   -3.253406 
C        5.288482   -1.748170   -2.927915 
C        4.126972   -2.494426   -2.260597 
C        3.645107   -1.745341   -1.012665 
C        3.206831    0.238412    1.622743 
C        2.994302   -1.140133    2.267303 
C        3.594936   -1.157108    3.679284 
C        5.082627   -0.782686    3.659574 
C        5.298163    0.581884    2.993237 
C        4.698188    0.613575    1.579104 
H       -0.245656   -1.707965    1.865373 
H       -2.819225   -0.371239   -2.215916 
H       -3.230189   -2.748789   -0.362672 
H       -1.760789   -2.330899   -1.243400 
H       -3.119087   -4.041703   -2.470944 
H       -2.927502   -2.553493   -3.399551 
H       -5.392712   -3.340392   -1.750927 
H       -5.296587   -3.324979   -3.511916 
H       -6.427450   -1.261716   -2.630671 
H       -4.945262   -0.866118   -3.503542 
H       -5.070682    0.432191   -1.395447 
H       -5.236742   -1.054322   -0.461167 
H       -2.465479    0.451871    2.316543 
H       -2.411508   -1.996876    1.813279 
H       -4.125009   -1.938644    1.399459 
H       -2.926471   -1.202123    4.116390 
H       -3.823256   -2.680917    3.755333 
H       -5.293202   -0.959591    4.860288 
H       -5.861889   -1.367172    3.241196 
H       -4.207428    1.098486    3.999822 
H       -5.914909    1.094655    3.553006 
H       -5.342762    0.329578    1.260298 
H       -4.469330    1.807621    1.662130 
H       -3.955800    2.066858   -0.323698 
H       -1.077684    2.897469    0.293877 
H       -2.349318    2.770143    1.480105 
H       -2.046165    5.138450    0.741851 
H       -3.658362    4.556218    0.328634 
H       -1.270904    4.750356   -1.582448 
H       -2.699864    5.781090   -1.605161 
H       -2.825345    3.969116   -3.343828 
H       -4.130332    3.826484   -2.165704 
H       -3.133532    1.612819   -2.620313 
H       -1.533844    2.182898   -2.184922 
H        3.564591    2.468609   -0.591164 
H        0.559611    2.573880   -1.151507 
H        1.768176    2.115907   -2.327538 
H        1.101675    4.508223   -2.604414 
H        2.807583    4.386865   -2.175589 
H        0.512712    5.037901   -0.250724 
H        1.736211    6.171791   -0.819994 
H        2.261906    5.305911    1.480565 
H        3.514182    4.858260    0.321627 
H        2.940688    2.936309    1.762041 
H        1.245445    3.035312    1.316951 
H        2.419927   -0.392863   -2.132832 
H        5.207202    0.560125   -1.286983 
H        4.083077    1.458683   -2.307696 
H        5.746803    0.236218   -3.689837 
H        4.098240   -0.306101   -4.009039 
H        6.151913   -1.744575   -2.246714 
H        5.605693   -2.267991   -3.840003 
H        4.427884   -3.513940   -1.990674 
H        3.291617   -2.582711   -2.968594 
H        2.818395   -2.284007   -0.542766 
H        4.463720   -1.707727   -0.282365 
H        2.684072    0.951283    2.275528 
H        3.458828   -1.926866    1.663188 
H        1.922115   -1.347534    2.315317 
H        3.457296   -2.147990    4.129032 
H        3.045134   -0.441097    4.305380 
H        5.641141   -1.548069    3.101064 
H        5.488216   -0.773918    4.678504 
H        6.367389    0.823413    2.949565 
H        4.817581    1.361528    3.600921 
H        4.835883    1.606778    1.136342 
H        5.239149   -0.097590    0.942080 
C        0.306803   -2.996009    0.272535 
C        0.290801   -4.063965    1.196067 
C        0.566926   -5.366711    0.794024 
C        0.856009   -5.632515   -0.545967 
C        0.869202   -4.587501   -1.475634 
C        0.604387   -3.284314   -1.074849 
H        0.059565   -3.849918    2.236920 
H        0.554564   -6.174166    1.520844 
H        1.091723   -4.793479   -2.518979 
H        0.609684   -2.468023   -1.790274 
H        1.069141   -6.648981   -0.865385 
*

%maxcore 5000

%pal
nprocs = 24
end

