#
# TMB01_R2 M06-D3/Def2-TZVPPD
#
! m06 d3zero def2-tzvppd def2/jk grid4 nofinalgrid

*xyz 0 1
C        0.000000    0.000000    0.598253 
C        0.000000    0.000000   -0.598253 
H        0.000000    0.000000    1.662161 
H        0.000000    0.000000   -1.662161 
*

%maxcore 5000

%pal
nprocs = 28
end

