#
# TMB26_C1 M06-D3/Def2-TZVPPD
#
! m06 d3zero def2-tzvppd def2/jk grid4 nofinalgrid

*xyz 0 1
C        2.167128    1.329895    0.039526 
C        2.525644    0.739273   -1.166486 
C        3.439975   -0.306708   -1.174383 
C        3.999633   -0.766755    0.014468 
C        3.640245   -0.158436    1.215781 
C        2.734668    0.894978    1.231934 
H        2.127840    1.087811   -2.109674 
H        4.700013   -1.586902    0.006791 
H        2.446371    1.320973    2.183519 
C        1.181573    2.421289    0.068499 
C        1.441057    3.589123    0.775147 
C       -0.063177    2.327678   -0.606474 
C        0.528793    4.632414    0.796916 
H        2.386085    3.685262    1.294444 
C       -0.980026    3.398239   -0.582106 
C       -0.681931    4.545260    0.115481 
H        0.768969    5.533734    1.348653 
H       -1.927777    3.275890   -1.088947 
H       -1.387173    5.365524    0.142831 
C       -0.458921    1.154963   -1.244997 
C       -0.929867    0.115196   -1.736149 
H       -0.939302   -0.474790   -2.633558 
Au      -1.934281   -0.752855   -0.093938 
Cl      -0.307197   -2.360512   -0.181170 
Cl      -3.051038   -1.907317    1.520981 
Cl      -3.535590    0.885204   -0.082121 
O        3.733505   -0.820421   -2.387318 
O        4.122752   -0.537296    2.416831 
C        4.611393   -1.919557   -2.452177 
H        4.218896   -2.777901   -1.898414 
H        4.691177   -2.180906   -3.505103 
H        5.605429   -1.663635   -2.071314 
C        4.983111   -1.650773    2.472584 
H        5.218240   -1.797897    3.524384 
H        4.497038   -2.550975    2.084317 
H        5.911564   -1.470782    1.920934 
*

%maxcore 5000

%pal
nprocs = 28
end

