#
# TMB20_T1 M06-D3/Def2-TZVPPD
#
! m06 d3zero def2-tzvppd def2/jk grid4 nofinalgrid

*xyz 0 1
Re       1.075850    0.159419    0.019780 
C        2.196750   -0.403878   -1.423482 
C        2.402994   -0.436307    1.215711 
C        1.922458    1.855293   -0.011396 
Br      -0.261613   -2.102343    0.064683 
O        2.449833    2.881230   -0.022028 
O        2.868443   -0.722069   -2.296753 
O        3.210599   -0.792996    1.955405 
C       -1.539667    1.495797    1.625423 
C       -0.428781    0.920088    1.558456 
C       -2.591644    1.677755   -0.408432 
C       -3.343269    0.487162   -0.270226 
O       -2.954237   -0.721219   -0.381568 
O       -4.608112    0.658864    0.009021 
C       -1.326616    1.715594   -1.019432 
O       -0.664105    0.697605   -1.265770 
H       -1.956019   -0.923705   -0.405218 
C       -5.425994   -0.504251    0.214760 
H       -6.403655   -0.115620    0.482117 
H       -5.482311   -1.089893   -0.701194 
H       -5.017526   -1.116193    1.017061 
H        0.138084    0.692302    2.461523 
H       -3.155110    2.594425   -0.305352 
H       -2.375145    2.018826    2.037613 
H       -0.897368    2.710605   -1.208716 
*

%maxcore 5000

%pal
nprocs = 28
end

