#
# TMD15_TiBr M06-D3/Def2-TZVPPD
#
! m06 d3zero def2-tzvppd def2/jk grid4 nofinalgrid

*xyz 0 4
Ti       0.000000    0.000000   -1.485965 
Br       0.000000    0.000000    0.934035 
*

%maxcore 5000

%pal
nprocs = 24
end

