#
# TMD19_FeCl M06-D3/Def2-TZVPPD
#
! m06 d3zero def2-tzvppd def2/jk grid4 nofinalgrid

*xyz 0 6
Fe       0.000000    0.000000    0.869767 
Cl       0.000000    0.000000   -1.330233 
*

%maxcore 5000

%pal
nprocs = 24
end

