#
# TMD16_VO M06-D3/Def2-TZVPPD
#
! m06 d3zero def2-tzvppd def2/jk grid4 nofinalgrid

*xyz 0 4
V        0.000000    0.000000    0.412903 
O        0.000000    0.000000   -1.187097 
*

%maxcore 5000

%pal
nprocs = 24
end

