#
# TMD23_CuBr M06-D3/Def2-TZVPPD
#
! m06 d3zero def2-tzvppd def2/jk grid4 nofinalgrid

*xyz 0 1
Cu       0.000000    0.000000   -1.208594 
Br       0.000000    0.000000    1.001406 
*

%maxcore 5000

%pal
nprocs = 28
end

