#
# TMD21_CoH M06-D3/Def2-TZVPPD
#
! m06 d3zero def2-tzvppd def2/jk grid4 nofinalgrid

*xyz 0 3
Co       0.000000    0.000000    0.053929 
H        0.000000    0.000000   -1.456071 
*

%maxcore 5000

%pal
nprocs = 24
end

