#
# MOR07_ed01 ri-B2PLYP-D3BJ/Def2-TZVPPD
#
! rijk ri-b2plyp d3bj def2-tzvppd def2/jk def2-tzvppd/c grid4 nofinalgrid

*xyz 0 1
Cr      -0.000046    0.000041   -0.405569 
O       -2.277907    2.043130   -0.317819 
C       -1.422280    1.275470   -0.391359 
C       -0.000325   -0.000192    1.429559 
O       -0.000571   -0.000422    2.587655 
C        1.422359   -1.275089   -0.391211 
O        2.278285   -2.042429   -0.317709 
C        1.275390    1.422211   -0.390822 
O        2.043071    2.277781   -0.316760 
C       -1.275267   -1.422351   -0.391135 
O       -2.042647   -2.278220   -0.317434 
*

%maxcore 5000

%pal
nprocs = 24
end

