#
# MOR04_c2h6 ri-B2PLYP-D3BJ/Def2-TZVPPD
#
! rijk ri-b2plyp d3bj def2-tzvppd def2/jk def2-tzvppd/c grid4 nofinalgrid

*xyz 0 1
C       -0.765850   -0.000004    0.000000 
C        0.765850    0.000004    0.000000 
H       -1.162381   -1.020936   -0.022850 
H       -1.162409    0.530251   -0.872720 
H       -1.162411    0.490675    0.895568 
H        1.162410   -0.530239    0.872727 
H        1.162411   -0.490686   -0.895561 
H        1.162381    1.020936    0.022836 
*

%maxcore 5000

%pal
nprocs = 28
end

