#
# MOR36_pr37 ri-B2PLYP-D3BJ/Def2-TZVPPD
#
! rijk ri-b2plyp d3bj def2-tzvppd def2/jk def2-tzvppd/c grid4 nofinalgrid

*xyz 0 1
Mo       0.000106   -0.000070   -0.471377 
C        0.514398   -1.514915   -1.646050 
C        1.055079    1.202350   -1.646249 
C       -1.568474    0.311983   -1.646660 
O       -2.484520    0.493946   -2.346732 
O        0.814970   -2.399453   -2.345765 
O        1.670957    1.904692   -2.346079 
N       -1.133555   -1.291008    0.811792 
N       -0.551576    1.627166    0.811584 
N        1.684684   -0.335905    0.812231 
C        2.623715   -0.523292    1.470917 
C       -0.858944    2.534303    1.469905 
C       -1.765652   -2.010491    1.470244 
C       -2.579903   -2.936733    2.238371 
H       -3.631237   -2.631169    2.207389 
H       -2.252645   -2.962558    3.282907 
H       -2.496617   -3.945451    1.819577 
C       -1.254401    3.702555    2.237857 
H       -0.464690    4.460832    2.206160 
H       -1.439592    3.432273    3.282594 
H       -2.170183    4.133961    1.819442 
C        3.832875   -0.764956    2.239344 
H        4.094105   -1.828181    2.208653 
H        3.691346   -0.468421    3.283785 
H        4.664793   -0.188419    1.820591 
*

%maxcore 5000

%pal
nprocs = 24
end

