#
# TMB01_R2 ri-B2PLYP-D3BJ/Def2-TZVPPD
#
! rijk ri-b2plyp d3bj def2-tzvppd def2/jk def2-tzvppd/c grid4 nofinalgrid

*xyz 0 1
C        0.000000    0.000000    0.598253 
C        0.000000    0.000000   -0.598253 
H        0.000000    0.000000    1.662161 
H        0.000000    0.000000   -1.662161 
*

%maxcore 5000

%pal
nprocs = 24
end

