#
# TMD02_O ri-B2PLYP-D3BJ/Def2-TZVPPD
#
! rijk ri-b2plyp d3bj def2-tzvppd def2/jk def2-tzvppd/c grid4 nofinalgrid

*xyz 0 3
O        0.000000    0.000000    0.000000 
*

%maxcore 5000

%pal
nprocs = 28
end

