#
# TMD15_TiBr ri-B2PLYP-D3BJ/Def2-TZVPPD
#
! rijk ri-b2plyp d3bj def2-tzvppd def2/jk def2-tzvppd/c grid4 nofinalgrid

*xyz 0 4
Ti       0.000000    0.000000   -1.485965 
Br       0.000000    0.000000    0.934035 
*

%maxcore 5000

%pal
nprocs = 28
end

