#
# TMD14_Zn ri-B2PLYP-D3BJ/Def2-TZVPPD
#
! rijk ri-b2plyp d3bj def2-tzvppd def2/jk def2-tzvppd/c grid4 nofinalgrid

*xyz 0 1
Zn       0.000000    0.000000    0.000000 
*

%maxcore 5000

%pal
nprocs = 24
end

