#
# MOR06_cod TPSSh-D3BJ/Def2-TZVPPD
#
! tpssh d3bj def2-tzvppd def2/jk grid4 nofinalgrid

*xyz 0 1
C        1.191389    1.227675   -0.516531 
C        0.040474   -1.675611   -0.245785 
C       -0.040358    1.675615   -0.245809 
H        1.773340    1.813957   -1.228847 
C       -1.191236   -1.227682   -0.516688 
H        0.358706   -2.571437   -0.779467 
H       -0.358419    2.571431   -0.779611 
H       -1.772889   -1.813647   -1.229501 
C       -1.080136    1.086431    0.676864 
H       -1.767105    1.885380    0.980109 
H       -0.630813    0.710792    1.597907 
C        1.924335    0.021333    0.009175 
H        2.698129    0.353800    0.719005 
H        2.474959   -0.423127   -0.831863 
C        1.079920   -1.086274    0.677130 
H        0.630295   -0.710168    1.597840 
H        1.766727   -1.885140    0.980948 
C       -1.924342   -0.021538    0.009255 
H       -2.697754   -0.354225    0.719400 
H       -2.475456    0.422687   -0.831583 
*

%maxcore 5000

%pal
nprocs = 24
end

