#
# MOR21_mecn TPSSh-D3BJ/Def2-TZVPPD
#
! tpssh d3bj def2-tzvppd def2/jk grid4 nofinalgrid

*xyz 0 1
N        1.434594    0.083513   -0.053227 
C        0.278345    0.016206   -0.010325 
C       -1.176577   -0.068494    0.043652 
H       -1.556498   -0.572512   -0.849824 
H       -1.609231    0.934929    0.094890 
H       -1.487035   -0.633283    0.927565 
*

%maxcore 5000

%pal
nprocs = 24
end

