#
# MOR31_pr20 TPSSh-D3BJ/Def2-TZVPPD
#
! tpssh d3bj def2-tzvppd def2/jk grid4 nofinalgrid

*xyz 0 1
Ir       0.002477   -0.015286    0.083430 
P       -2.348177   -0.226580   -0.058132 
C       -2.872702   -1.550327   -1.188803 
C       -3.160695   -0.601199    1.533451 
H       -2.768983   -1.545856    1.920385 
H       -3.035053    2.092169    0.038161 
H       -4.244853   -0.682241    1.406776 
H       -2.786362    1.529395   -1.637172 
H       -3.965660   -1.602102   -1.229325 
H       -2.934726    0.195116    2.248250 
C       -3.202684    1.268779   -0.660861 
H       -2.461852   -1.335119   -2.177902 
H       -4.277134    1.082313   -0.755690 
H       -2.448990   -2.494963   -0.841403 
P        2.371733   -0.033051   -0.048079 
C        3.118147   -1.146577    1.190097 
C        2.988864   -0.646513   -1.645491 
H        2.993037    2.252530   -0.586719 
H        4.326367    1.397945    0.228668 
H        2.927925    1.991387    1.168046 
C        3.242996    1.555288    0.216058 
H        4.081131   -0.719105   -1.623165 
H        2.539412   -1.627874   -1.816909 
H        4.198017   -1.226939    1.030710 
H        2.645385   -2.126625    1.084325 
H        2.665924    0.027013   -2.441495 
H        2.928294   -0.762471    2.196181 
C        0.041875   -0.376924    1.901008 
O        0.060916   -0.624538    3.028225 
Cl       0.274891   -2.517433   -0.343637 
C       -0.190594    2.003978    0.494123 
O       -0.529496    2.399253    1.599170 
Cl      -0.136178    0.364638   -2.291447 
C        0.062980    3.028488   -0.607541 
H        0.210382    4.010245   -0.149220 
H       -0.815546    3.056386   -1.260585 
H        0.900599    2.750150   -1.247819 
*

%maxcore 5000

%pal
nprocs = 24
end

