#
# TMB01_T1 TPSSh-D3BJ/Def2-TZVPPD
#
! tpssh d3bj def2-tzvppd def2/jk grid4 nofinalgrid

*xyz 0 1
Zr       0.019829   -0.026802    0.120636 
C        2.239874   -0.374444    1.245397 
C        1.976783   -1.521588    0.474285 
C        2.416443    0.711808    0.354001 
H        1.819060   -2.516470    0.858019 
C        2.001810   -1.148643   -0.895658 
H        2.608112    1.737773    0.630719 
C        2.298913    0.223349   -0.961356 
H        1.861573   -1.806504   -1.739184 
H        2.356666    0.814844   -1.859655 
C       -1.057190   -2.235373    0.523484 
C       -1.856346   -1.294393    1.201077 
C       -1.167009   -1.987955   -0.868757 
H       -2.005770   -1.236737    2.266001 
C       -2.451652   -0.457501    0.227470 
H       -0.689853   -2.550694   -1.656100 
C       -2.043033   -0.903228   -1.046149 
H       -3.108339    0.375352    0.426641 
H       -2.305042   -0.449162   -1.987488 
Cl      -0.345437    1.661478   -1.736503 
C       -1.133945    2.698822    1.012771 
C       -0.495222    2.377308    1.980322 
H       -1.676629    3.004729    0.150271 
H       -0.029188    0.104247    1.943645 
H        0.041631    2.180985    2.876056 
H        2.316195   -0.336400    2.319120 
H       -0.485725   -3.023975    0.985751 
*

%maxcore 5000

%pal
nprocs = 24
end

