#
# TMB10_C1 TPSSh-D3BJ/Def2-TZVPPD
#
! tpssh d3bj def2-tzvppd def2/jk grid4 nofinalgrid

*xyz 0 1
Mo       0.133298    0.019814    0.066207 
C       -1.075332   -1.355629   -0.909336 
C       -2.072844    2.216315    0.675821 
H       -2.495915    2.026095    1.680930 
H       -2.910608    2.260759   -0.044542 
H       -1.592380    3.211696    0.695601 
C        3.010907   -1.316541   -0.054396 
C        1.366704    2.705574   -0.540684 
N       -1.143030    1.200231    0.316847 
O        1.491405    1.304940   -0.439122 
O        1.615447   -1.247555   -0.063202 
H        3.367194   -2.025819   -0.825669 
H        3.385726   -1.672276    0.926079 
H        3.451946   -0.322838   -0.260301 
H        2.294131    3.111318   -0.982908 
H        1.229038    3.178184    0.450904 
H        0.520365    2.998986   -1.190253 
C       -0.462062   -1.067727    1.747714 
C       -1.245054   -1.851214    0.615257 
H        0.321659   -1.674412    2.211474 
H       -1.131198   -0.604236    2.478956 
H       -0.901967   -2.892720    0.638908 
H       -2.316994   -1.775934    0.836451 
C       -2.372818   -1.072037   -1.638655 
H       -2.166926   -0.639290   -2.630957 
H       -2.958163   -1.996472   -1.801781 
H       -3.005382   -0.361002   -1.085358 
H       -0.439666   -2.067375   -1.451890 
*

%maxcore 5000

%pal
nprocs = 28
end

