#
# TMB28_C1 TPSSh-D3BJ/Def2-TZVPPD
#
! tpssh d3bj def2-tzvppd def2/jk grid4 nofinalgrid

*xyz 0 1
C       -0.405710    1.676464   -0.132905 
C       -0.911585    0.669613    0.356254 
C       -0.058307    2.983711   -0.650101 
H       -0.949750    3.612259   -0.580916 
H        0.745323    3.420879   -0.056180 
H        0.255303    2.923577   -1.693087 
C       -1.922079   -0.256189    0.903797 
O       -2.980737   -0.448274   -0.040247 
C       -3.644467    0.620195   -0.535863 
O       -3.419291    1.755394   -0.218963 
C       -1.315036   -1.659397    1.187254 
O       -0.292489   -1.714090    1.813533 
C       -2.070337   -2.858032    0.718520 
H       -2.050973   -2.878590   -0.373534 
H       -1.593281   -3.749478    1.117849 
H       -3.118661   -2.810283    1.017394 
C       -4.664667    0.177679   -1.534856 
H       -5.268795    1.028888   -1.835351 
H       -4.153929   -0.239550   -2.404894 
H       -5.293840   -0.608504   -1.117133 
C       -2.442836    0.266886    2.244835 
H       -3.205737   -0.415249    2.624458 
H       -1.614369    0.303689    2.950542 
H       -2.869838    1.259004    2.124200 
Au       1.189623    0.069390   -0.174295 
Cl       0.186320   -1.092349   -1.885264 
Cl       3.146088   -1.001725   -0.550079 
Cl       2.155158    1.282412    1.507095 
*

%maxcore 5000

%pal
nprocs = 28
end

