#
# TMD01_H TPSSh-D3BJ/Def2-TZVPPD
#
! tpssh d3bj def2-tzvppd def2/jk grid4 nofinalgrid

*xyz 0 2
H        0.000000    0.000000    0.000000 
*

%maxcore 5000

%pal
nprocs = 24
end

