#
# TMD12_Co TPSSh-D3BJ/Def2-TZVPPD
#
! tpssh d3bj def2-tzvppd def2/jk grid4 nofinalgrid

*xyz 0 4
Co       0.000000    0.000000    0.000000 
*

%maxcore 5000

%pal
nprocs = 28
end

