#
# TMD18_MnBr TPSSh-D3BJ/Def2-TZVPPD
#
! tpssh d3bj def2-tzvppd def2/jk grid4 nofinalgrid

*xyz 0 7
Mn       0.000000    0.000000   -1.400000 
Br       0.000000    0.000000    1.000000 
*

%maxcore 5000

%pal
nprocs = 24
end

