#
# TMD24_ZnS TPSSh-D3BJ/Def2-TZVPPD
#
! tpssh d3bj def2-tzvppd def2/jk grid4 nofinalgrid

*xyz 0 1
Zn       0.000000    0.000000    0.720000 
S        0.000000    0.000000   -1.350000 
*

%maxcore 5000

%pal
nprocs = 24
end

