#
# MOR15_ed28 wB97X-V/Def2-TZVPPD
#
! wb97x-v def2-tzvppd def2/jk grid4 nofinalgrid

*xyz 0 1
P        2.231289   -0.430274   -0.463190 
P       -2.231227    0.430230   -0.463237 
C        0.601806    0.475539   -0.398801 
C       -0.601746   -0.475582   -0.398812 
H        0.558406    1.125089   -1.282007 
H        0.584231    1.127683    0.485308 
H       -0.558397   -1.125071   -1.282069 
H       -0.584133   -1.127767    0.485258 
C       -2.297387    1.057835    1.283006 
H       -3.294023    1.464895    1.482076 
H       -1.575039    1.869076    1.414857 
H       -2.084239    0.266904    2.013068 
C       -3.365229   -1.028103   -0.282748 
H       -3.089031   -1.663694    0.567640 
H       -3.336618   -1.627593   -1.198231 
H       -4.392612   -0.676718   -0.143291 
C        3.365219    1.028123   -0.282780 
H        4.392633    0.676869   -0.143242 
H        3.088901    1.663766    0.567523 
H        3.336575    1.627522   -1.198328 
C        2.297280   -1.057763    1.283073 
H        1.574883   -1.868971    1.414841 
H        2.084009   -0.266765    2.013028 
H        3.293857   -1.464863    1.482348 
*

%maxcore 5000

%pal
nprocs = 24
end

