#
# MOR10_ed09 wB97X-V/Def2-TZVPPD
#
! wb97x-v def2-tzvppd def2/jk grid4 nofinalgrid

*xyz 0 1
C        0.808995    0.630455    2.540471 
C        1.251846    1.095590    1.293526 
C        1.383898    2.476779    1.093534 
C        1.096273    3.369549    2.123624 
C        0.674512    2.896605    3.366402 
C        0.527691    1.524549    3.571013 
P        1.574642   -0.069667   -0.082699 
C        2.832960    0.843508   -1.058615 
C        2.470614    1.376098   -2.300811 
C        3.389175    2.120533   -3.040434 
C        4.677141    2.329565   -2.547864 
C        5.047172    1.790502   -1.313611 
C        4.129605    1.051595   -0.570111 
Rh      -0.002604   -0.796146   -1.344377 
Cl       1.074079   -1.834200   -3.101706 
P       -1.622228   -0.075877   -0.088018 
C       -1.803842    1.702415    0.297126 
C       -2.229632    2.223789    1.521581 
C       -2.349352    3.604004    1.692487 
C       -2.048907    4.471915    0.644369 
C       -1.606201    3.958746   -0.577355 
C       -1.475459    2.583893   -0.746478 
C       -3.062543   -0.419252   -1.169366 
C       -3.141320   -1.718422   -1.702099 
C       -4.157899   -2.054399   -2.592475 
C       -5.110047   -1.100127   -2.955969 
C       -5.041177    0.189383   -2.426273 
C       -4.021006    0.532927   -1.539475 
C       -2.066176   -1.000166    1.430207 
C       -1.181452   -1.986758    1.882501 
C       -1.497950   -2.762866    2.997043 
C       -2.708929   -2.565810    3.661246 
C       -3.611118   -1.604929    3.197782 
C       -3.296146   -0.830428    2.082866 
C        2.526762   -1.412838    0.731905 
C        3.276788   -1.210573    1.900876 
C        4.004905   -2.259926    2.460546 
C        3.996021   -3.518658    1.858231 
C        3.258939   -3.724012    0.690924 
C        2.525229   -2.679846    0.130400 
H       -2.400862   -2.462118   -1.411221 
H       -4.205196   -3.058543   -3.003745 
H       -5.903513   -1.360959   -3.650464 
H       -5.783053    0.932397   -2.706210 
H       -3.967070    1.539632   -1.137031 
H       -2.450107    1.557807    2.348608 
H       -2.671735    3.999637    2.651651 
H       -2.145762    5.545320    0.781176 
H       -1.354424    4.630618   -1.393167 
H       -1.106831    2.171328   -1.683412 
H       -0.254747   -2.145782    1.334840 
H       -0.803470   -3.525000    3.339550 
H       -2.958943   -3.170852    4.528281 
H       -4.564895   -1.467934    3.699990 
H       -4.014311   -0.106909    1.706849 
H        3.285372   -0.236670    2.380292 
H        4.578140   -2.092663    3.368393 
H        4.561493   -4.335782    2.297848 
H        3.251715   -4.700268    0.214323 
H        1.950377   -2.830532   -0.780423 
H        1.471910    1.178524   -2.682000 
H        3.101239    2.524675   -4.006836 
H        5.396289    2.901586   -3.127755 
H        6.053788    1.939891   -0.932858 
H        4.425922    0.628717    0.384972 
H        1.719088    2.850389    0.131432 
H        1.199114    4.437105    1.952609 
H        0.454504    3.594780    4.169138 
H        0.193294    1.146402    4.533186 
H        0.698101   -0.433995    2.712341 
*

%maxcore 5000

%pal
nprocs = 28
end

