#
# MOR20_i2 wB97X-V/Def2-TZVPPD
#
! wb97x-v def2-tzvppd def2/jk grid4 nofinalgrid

*xyz 0 1
I        0.000000    0.000000    1.341554 
I        0.000000    0.000000   -1.341554 
*

%maxcore 5000

%pal
nprocs = 28
end

