#
# MOR35_pr36 wB97X-V/Def2-TZVPPD
#
! wb97x-v def2-tzvppd def2/jk grid4 nofinalgrid

*xyz 0 1
Mo       0.001156    0.812745    0.000207 
C        1.172497    1.772826   -1.694485 
C        0.639726    0.579325   -2.273801 
C       -0.771247    0.649846   -2.254302 
C       -1.164711    1.879753   -1.653638 
C        0.046469    2.597671   -1.356619 
H        2.218029    2.030602   -1.618416 
H        1.217264   -0.260486   -2.625291 
H       -1.439014   -0.129218   -2.585395 
H       -2.178363    2.230425   -1.528995 
H        0.103229    3.616282   -1.010207 
C       -0.046468    2.595414    1.359819 
C       -1.170703    1.767726    1.696458 
C        0.775662    0.648005    2.254259 
C        1.166251    1.879509    1.655532 
H       -2.216820    2.023173    1.620920 
H       -1.210568   -0.267639    2.623707 
C       -0.635131    0.574168    2.273601 
H        2.179106    2.232469    1.530897 
H       -0.105362    3.614384    1.014912 
H        1.445278   -0.130208    2.583598 
I        1.897907   -1.310822   -0.012606 
I       -1.900461   -1.307301    0.011561 
*

%maxcore 5000

%pal
nprocs = 28
end

