#
# TMB01_R2 wB97X-V/Def2-TZVPPD
#
! wb97x-v def2-tzvppd def2/jk grid4 nofinalgrid

*xyz 0 1
C        0.000000    0.000000    0.598253 
C        0.000000    0.000000   -0.598253 
H        0.000000    0.000000    1.662161 
H        0.000000    0.000000   -1.662161 
*

%maxcore 5000

%pal
nprocs = 28
end

