#
# TMB26_T1 wB97X-V/Def2-TZVPPD
#
! wb97x-v def2-tzvppd def2/jk grid4 nofinalgrid

*xyz 0 1
C       -2.466566    1.069840    0.238308 
C       -2.451721    0.070166    1.223311 
C       -3.390268   -0.966147    1.168446 
C       -4.328348   -1.022612    0.143865 
C       -4.333048   -0.013813   -0.819144 
C       -3.403006    1.027077   -0.774806 
H       -1.851874    0.172622    2.118430 
H       -5.044959   -1.827220    0.098719 
H       -3.408268    1.764270   -1.566273 
C       -1.433505    2.123552    0.250561 
C       -1.778108    3.466931    0.185146 
C       -0.064979    1.782593    0.286078 
C       -0.802488    4.453319    0.169404 
H       -2.826505    3.739000    0.161874 
C        0.907771    2.775168    0.263672 
C        0.538977    4.108677    0.211691 
H       -1.095064    5.495288    0.125305 
H        1.951961    2.493561    0.298441 
H        1.301937    4.876538    0.199556 
C        0.257789    0.377788    0.312230 
C       -0.304042   -0.722217    0.502541 
H       -0.515543   -1.762216    0.625327 
Au       2.138195   -0.491597   -0.140080 
Cl       1.419476   -1.043843   -2.240555 
Cl       4.263347   -1.139807   -0.651257 
Cl       2.780432    0.097050    1.979491 
O       -3.309425   -1.870502    2.160546 
O       -5.195970    0.025756   -1.845512 
C       -4.244039   -2.927838    2.190952 
H       -4.158173   -3.562934    1.304307 
H       -4.005337   -3.514103    3.075014 
H       -5.267556   -2.550903    2.273203 
C       -6.143948   -1.010635   -1.979012 
H       -6.717344   -0.779100   -2.873359 
H       -5.656738   -1.981777   -2.105696 
H       -6.818943   -1.047780   -1.118843 
*

%maxcore 5000

%pal
nprocs = 28
end

