#
# TMB20_T3 wB97X-V/Def2-TZVPPD
#
! wb97x-v def2-tzvppd def2/jk grid4 nofinalgrid

*xyz 0 1
Re      -0.699337    0.269974   -0.016922 
C       -1.517494    1.171658    1.511937 
C       -2.128741    0.734814   -1.269556 
C        0.006415    1.979914   -0.520985 
Br      -2.293994   -1.692635    0.422377 
O        0.401983    3.017146   -0.812479 
O       -1.978437    1.683611    2.420736 
O       -2.925520    0.985618   -2.040062 
C        1.682445   -0.880018   -1.649716 
C        0.364751   -1.082540   -1.469297 
C        2.354559    0.058914   -0.699791 
C        3.755152   -0.401179   -0.311110 
O        4.391770   -1.216840   -0.916463 
O        4.190730    0.250058    0.766853 
C        1.438220    0.283372    0.494253 
O        0.848413   -0.807036    1.012308 
H        0.600901   -1.340620   -0.125835 
C        5.512413   -0.088930    1.195157 
H        5.700542    0.516294    2.077458 
H        5.571154   -1.149548    1.436871 
H        6.234349    0.138790    0.411497 
H       -0.156995   -1.792005   -2.102193 
H        2.493970    1.031893   -1.188973 
H        1.754916    1.016172    1.230092 
H        2.303398   -1.383326   -2.385460 
*

%maxcore 5000

%pal
nprocs = 28
end

