#
# TMB31_C1 wB97X-V/Def2-TZVPPD
#
! wb97x-v def2-tzvppd def2/jk grid4 nofinalgrid

*xyz 1 1
Ir      -0.040708    0.096324    0.064455 
C       -0.971708    0.418734    1.931461 
C        1.819460    0.364204   -1.190947 
C        1.490903   -0.994938   -1.162590 
C        1.450197   -1.406167    0.225985 
C        1.875844   -0.290195    1.023097 
C        2.052625    0.814608    0.164170 
H       -0.394638    1.150210    2.498372 
H       -1.993156    0.794195    1.837094 
H       -1.008781   -0.505981    2.508304 
H        1.977900   -0.288415    2.097324 
H        2.352296    1.808383    0.458691 
H        1.885000    0.981073   -2.074563 
H        1.275763   -1.618283   -2.016436 
H        1.275639   -2.406893    0.589421 
C       -1.335861    2.101294   -0.927849 
H       -0.822201    1.778454    0.045587 
H       -0.969200    3.125001   -0.997930 
H       -1.110952    1.579089   -1.850904 
H       -2.401764    2.084149   -0.716661 
P       -1.870306   -1.156932   -0.405763 
H       -1.625569   -2.441008   -0.924735 
H       -2.747711   -1.466666    0.650785 
H       -2.792266   -0.681495   -1.360892 
*

%maxcore 5000

%pal
nprocs = 28
end

