#
# TMD03_F wB97X-V/Def2-TZVPPD
#
! wb97x-v def2-tzvppd def2/jk grid4 nofinalgrid

*xyz 0 2
F        0.000000    0.000000    0.000000 
*

%maxcore 5000

%pal
nprocs = 24
end

