#
# TMD19_FeCl wB97X-V/Def2-TZVPPD
#
! wb97x-v def2-tzvppd def2/jk grid4 nofinalgrid

*xyz 0 6
Fe       0.000000    0.000000    0.869767 
Cl       0.000000    0.000000   -1.330233 
*

%maxcore 5000

%pal
nprocs = 28
end

