#
# TMD15_TiBr wB97X-V/Def2-TZVPPD
#
! wb97x-v def2-tzvppd def2/jk grid4 nofinalgrid

*xyz 0 4
Ti       0.000000    0.000000   -1.485965 
Br       0.000000    0.000000    0.934035 
*

%maxcore 5000

%pal
nprocs = 28
end

