#
# TMD18_MnBr wB97X-V/Def2-TZVPPD
#
! wb97x-v def2-tzvppd def2/jk grid4 nofinalgrid

*xyz 0 7
Mn       0.000000    0.000000   -1.400000 
Br       0.000000    0.000000    1.000000 
*

%maxcore 5000

%pal
nprocs = 24
end

