#
# TMD20_FeS wB97X-V/Def2-TZVPPD
#
! wb97x-v def2-tzvppd def2/jk grid4 nofinalgrid

*xyz 0 5
Fe       0.000000    0.000000    0.769524 
S        0.000000    0.000000   -1.250476 
*

%maxcore 5000

%pal
nprocs = 24
end

