#
# TMD23_CuBr wB97X-V/Def2-TZVPPD
#
! wb97x-v def2-tzvppd def2/jk grid4 nofinalgrid

*xyz 0 1
Cu       0.000000    0.000000   -1.208594 
Br       0.000000    0.000000    1.001406 
*

%maxcore 5000

%pal
nprocs = 24
end

