#
# TMD22_CoF wB97X-V/Def2-TZVPPD
#
! wb97x-v def2-tzvppd def2/jk grid4 nofinalgrid

*xyz 0 3
Co       0.000000    0.000000    0.440000 
F        0.000000    0.000000   -1.320000 
*

%maxcore 5000

%pal
nprocs = 28
end

