#
# MOR05_co TPSS-D3BJ/Def2-TZVPPD
#
! tpss d3bj def2-tzvppd def2/j grid4 nofinalgrid

*xyz 0 1
O        0.000000    0.000000    0.486237 
C        0.000000    0.000000   -0.648315 
*

%maxcore 5000

%pal
nprocs = 28
end

