#
# MOR02_bz TPSS-D3BJ/Def2-TZVPPD
#
! tpss d3bj def2-tzvppd def2/j grid4 nofinalgrid

*xyz 0 1
C        1.391947    0.103893   -0.000005 
C        0.785946   -1.153510   -0.000002 
C       -0.605997   -1.257403   -0.000005 
C       -1.391947   -0.103892   -0.000002 
C       -0.785947    1.153509   -0.000006 
C        0.605998    1.257403   -0.000002 
H        2.475503    0.184769    0.000018 
H        1.397775   -2.051448    0.000027 
H       -1.077745   -2.236217    0.000018 
H       -2.475502   -0.184774    0.000031 
H       -1.397773    2.051449    0.000014 
H        1.077742    2.236219    0.000031 
*

%maxcore 5000

%pal
nprocs = 28
end

