#
# MOR19_h2 TPSS-D3BJ/Def2-TZVPPD
#
! tpss d3bj def2-tzvppd def2/j grid4 nofinalgrid

*xyz 0 1
H        0.000000    0.000000    0.371761 
H        0.000000    0.000000   -0.371761 
*

%maxcore 5000

%pal
nprocs = 24
end

