#
# MOR28_pr09 TPSS-D3BJ/Def2-TZVPPD
#
! tpss d3bj def2-tzvppd def2/j grid4 nofinalgrid

*xyz 0 1
Rh       0.002553    0.015324   -0.037445 
P       -2.290286    0.102034   -0.002141 
P        2.295185    0.104741   -0.029108 
H       -0.000447    1.293328    0.830281 
H        0.001130    1.304527   -0.889045 
Cl       0.007749   -2.380443   -0.037879 
C        3.048741    1.714400   -0.468454 
C        3.042509   -0.273930    1.598336 
C        3.097153   -1.069215   -1.172055 
C       -3.110022   -0.330980   -1.580554 
C       -3.050128   -1.025999    1.213911 
C       -3.019556    1.731005    0.405513 
C        4.221249    1.798414   -1.230361 
C        4.789108    3.041134   -1.513476 
C        4.197347    4.208872   -1.032572 
C        3.028536    4.131819   -0.272310 
C        2.452968    2.893237    0.001453 
H        4.686057    0.892043   -1.605584 
H        5.694526    3.094809   -2.111614 
H        4.640059    5.175809   -1.254830 
H        2.559280    5.038271    0.099833 
H        1.532532    2.831516    0.574445 
C        2.492740   -1.274577   -2.419700 
C        3.069210   -2.141848   -3.343202 
C        4.245283   -2.823200   -3.021963 
C        4.842886   -2.633499   -1.775820 
C        4.272633   -1.757382   -0.851682 
H        1.559916   -0.765736   -2.648777 
H        2.592837   -2.299617   -4.306681 
H        4.688326   -3.509606   -3.738122 
H        5.750981   -3.171899   -1.518950 
H        4.733770   -1.615306    0.121218 
C        2.573432   -1.401325    2.291237 
C        3.112349   -1.729837    3.532773 
C        4.110733   -0.934394    4.100320 
C        4.573407    0.190471    3.418246 
C        4.043987    0.520908    2.169837 
H        1.789551   -2.010529    1.847481 
H        2.746524   -2.605505    4.061892 
H        4.523765   -1.189174    5.072491 
H        5.347947    0.814312    3.855909 
H        4.408962    1.396682    1.642408 
C       -4.114004    1.861395    1.269146 
C       -4.661457    3.119187    1.526531 
C       -4.128475    4.254505    0.917253 
C       -3.037090    4.130954    0.054341 
C       -2.480194    2.878757   -0.192845 
H       -4.534614    0.980084    1.743054 
H       -5.505661    3.209295    2.204432 
H       -4.556024    5.232793    1.118339 
H       -2.613755    5.012384   -0.419158 
H       -1.618255    2.782567   -0.846864 
C       -4.156822    0.429958   -2.116482 
C       -4.751801    0.052668   -3.321119 
C       -4.309469   -1.085441   -3.994829 
C       -3.265632   -1.846455   -3.463206 
C       -2.661736   -1.471384   -2.265369 
H       -4.506373    1.315520   -1.594998 
H       -5.561640    0.650007   -3.730969 
H       -4.773990   -1.377169   -4.932751 
H       -2.915705   -2.732129   -3.986302 
H       -1.843939   -2.054854   -1.849211 
C       -2.377196   -1.225504    2.426817 
C       -2.923708   -2.054207    3.402951 
C       -4.138807   -2.701607    3.169380 
C       -4.805427   -2.517892    1.957599 
C       -4.264583   -1.681339    0.980942 
H       -1.416572   -0.742639    2.587014 
H       -2.394478   -2.207926    4.339105 
H       -4.559549   -3.357196    3.926721 
H       -5.744700   -3.030292    1.768738 
H       -4.779554   -1.544060    0.034665 
*

%maxcore 5000

%pal
nprocs = 28
end

