#
# MOR20_i2 TPSS-D3BJ/Def2-TZVPPD
#
! tpss d3bj def2-tzvppd def2/j grid4 nofinalgrid

*xyz 0 1
I        0.000000    0.000000    1.341554 
I        0.000000    0.000000   -1.341554 
*

%maxcore 5000

%pal
nprocs = 24
end

