#
# MOR30_pr12 TPSS-D3BJ/Def2-TZVPPD
#
! tpss d3bj def2-tzvppd def2/j grid4 nofinalgrid

*xyz 0 1
Cr      -0.000015    0.000077   -0.030936 
O       -3.048010    0.000059    0.176284 
C       -1.899390    0.000055    0.076972 
C        0.001618   -0.001981    1.838499 
O        0.002800   -0.003409    2.993522 
C        1.899510    0.000027    0.074271 
O        3.048267   -0.000019    0.172029 
C       -0.000196    1.904845   -0.051611 
O       -0.000396    3.057825   -0.041163 
C       -0.000244   -1.904616   -0.055186 
O       -0.000506   -3.057616   -0.046760 
C       -0.692601    0.002127   -2.246320 
H       -1.244106   -0.917771   -2.406195 
H       -1.243862    0.922423   -2.404834 
C        0.689570    0.001986   -2.247230 
H        1.240812    0.922165   -2.406446 
H        1.240675   -0.918028   -2.407739 
*

%maxcore 5000

%pal
nprocs = 24
end

