#
# MOR37_pr38 TPSS-D3BJ/Def2-TZVPPD
#
! tpss d3bj def2-tzvppd def2/j grid4 nofinalgrid

*xyz 0 1
Mo       0.000368   -0.000951   -0.664236 
C        1.186218    1.095679   -1.824431 
C       -1.543342    0.475450   -1.823831 
C        0.358600   -1.578355   -1.821075 
O        0.584740   -2.492846   -2.512436 
O        1.864319    1.747384   -2.517871 
O       -2.447606    0.735637   -2.516687 
P        1.980785   -0.729448    0.688588 
P       -1.623545   -1.348294    0.688464 
P       -0.357708    2.080403    0.685812 
C       -1.633250    3.223236    0.009653 
H       -1.705660    4.145387    0.596929 
H       -2.603028    2.718106    0.000627 
H       -1.373511    3.465952   -1.024212 
C       -0.858884    2.043709    2.465539 
H       -1.825180    1.541749    2.565977 
H       -0.943418    3.056285    2.875390 
H       -0.120247    1.484663    3.045786 
C        1.092608    3.215640    0.782943 
H        0.848407    4.138527    1.320517 
H        1.418994    3.459201   -0.231490 
H        1.920240    2.713456    1.291867 
C       -1.984130   -3.020964    0.008508 
H       -2.747676   -3.543086    0.595776 
H       -1.064326   -3.612180   -0.003877 
H       -2.325682   -2.913010   -1.024422 
C       -1.336917   -1.769970    2.466070 
H       -2.171293   -2.349509    2.876428 
H       -1.219304   -0.852646    3.048800 
H       -0.419591   -2.357379    2.562237 
C       -3.329045   -0.653966    0.792955 
H       -4.006858   -1.325859    1.330979 
H       -3.705797   -0.489375   -0.219919 
H       -3.303097    0.312486    1.304224 
C        3.608641   -0.198569    0.011444 
H        4.443241   -0.596886    0.599054 
H        3.657034    0.893802    0.001026 
H        3.688452   -0.546249   -1.021993 
C        2.199807   -0.272940    2.467201 
H        3.119209   -0.704894    2.877753 
H        1.346620   -0.631939    3.048604 
H        2.248134    0.815142    2.564989 
C        2.238042   -2.552971    0.789569 
H        3.157648   -2.802349    1.330381 
H        2.288935   -2.958854   -0.224143 
H        1.387609   -3.017788    1.296348 
*

%maxcore 5000

%pal
nprocs = 24
end

