#
# TMB01_R2 TPSS-D3BJ/Def2-TZVPPD
#
! tpss d3bj def2-tzvppd def2/j grid4 nofinalgrid

*xyz 0 1
C        0.000000    0.000000    0.598253 
C        0.000000    0.000000   -0.598253 
H        0.000000    0.000000    1.662161 
H        0.000000    0.000000   -1.662161 
*

%maxcore 5000

%pal
nprocs = 24
end

