#
# TMB06_T1 TPSS-D3BJ/Def2-TZVPPD
#
! tpss d3bj def2-tzvppd def2/j grid4 nofinalgrid

*xyz -2 1
C       -5.371545   -2.136160    0.336278 
C       -4.697063   -0.763740    0.262018 
O       -4.978822    0.003309   -0.707502 
O       -3.902613   -0.505987    1.212120 
C        2.635057   -0.678655    2.396830 
S        2.063323    1.004526    1.938677 
C        2.314937   -2.581636   -1.299530 
S        0.864820   -2.286095   -0.358137 
C        3.240953   -1.614445   -1.507242 
S        2.972432   -0.000985   -0.910324 
C       -0.891125    2.751712   -1.395439 
S        0.528832    2.543841   -0.360303 
C       -1.489329    1.702419   -2.015371 
S       -0.828634    0.070077   -1.896647 
W        0.627788    0.033115    0.107608 
O       -2.320739    1.386691    1.151938 
C       -0.689027   -0.837880    1.297595 
C       -0.745952    0.472117    1.605961 
H       -4.850130   -2.819358   -0.346804 
H       -5.250819   -2.525653    1.350280 
H        1.778524   -1.298220    2.681124 
H        3.117621   -1.144410    1.536216 
H       -3.029141    0.618126    1.100277 
H       -2.171098    1.699602    0.245945 
H       -1.140104   -1.782909    1.572954 
H       -0.640990    1.084034    2.487860 
H       -1.256518    3.767648   -1.529996 
H       -2.404891    1.822493   -2.590760 
H        3.371580   -0.608085    3.204035 
H        2.423780   -3.583247   -1.710229 
H        4.191166   -1.850203   -1.981855 
H       -6.431678   -2.086675    0.066661 
*

%maxcore 5000

%pal
nprocs = 24
end

