#
# TMD07_Ti TPSS-D3BJ/Def2-TZVPPD
#
! tpss d3bj def2-tzvppd def2/j grid4 nofinalgrid

*xyz 0 3
Ti       0.000000    0.000000    0.000000 
*

%maxcore 5000

%pal
nprocs = 24
end

