#
# TMD19_FeCl TPSS-D3BJ/Def2-TZVPPD
#
! tpss d3bj def2-tzvppd def2/j grid4 nofinalgrid

*xyz 0 6
Fe       0.000000    0.000000    0.869767 
Cl       0.000000    0.000000   -1.330233 
*

%maxcore 5000

%pal
nprocs = 24
end

