#
# TMD16_VO TPSS-D3BJ/Def2-TZVPPD
#
! tpss d3bj def2-tzvppd def2/j grid4 nofinalgrid

*xyz 0 4
V        0.000000    0.000000    0.412903 
O        0.000000    0.000000   -1.187097 
*

%maxcore 5000

%pal
nprocs = 24
end

