#
# TMD18_MnBr TPSS-D3BJ/Def2-TZVPPD
#
! tpss d3bj def2-tzvppd def2/j grid4 nofinalgrid

*xyz 0 7
Mn       0.000000    0.000000   -1.400000 
Br       0.000000    0.000000    1.000000 
*

%maxcore 5000

%pal
nprocs = 28
end

