#
# TMD21_CoH TPSS-D3BJ/Def2-TZVPPD
#
! tpss d3bj def2-tzvppd def2/j grid4 nofinalgrid

*xyz 0 3
Co       0.000000    0.000000    0.053929 
H        0.000000    0.000000   -1.456071 
*

%maxcore 5000

%pal
nprocs = 28
end

