#
# TMD23_CuBr TPSS-D3BJ/Def2-TZVPPD
#
! tpss d3bj def2-tzvppd def2/j grid4 nofinalgrid

*xyz 0 1
Cu       0.000000    0.000000   -1.208594 
Br       0.000000    0.000000    1.001406 
*

%maxcore 5000

%pal
nprocs = 24
end

