#
# TMD22_CoF TPSS-D3BJ/Def2-TZVPPD
#
! tpss d3bj def2-tzvppd def2/j grid4 nofinalgrid

*xyz 0 3
Co       0.000000    0.000000    0.440000 
F        0.000000    0.000000   -1.320000 
*

%maxcore 5000

%pal
nprocs = 24
end

