#
# MOR03_c2h4 ri-DSD-BLYP/2013-D3BJ/Def2-TZVPPD
#
! rijk ri-dsd-blyp/2013 d3bj def2-tzvppd def2/jk def2-tzvppd/c grid4 nofinalgrid

*xyz 0 1
C        0.000000    0.665348   -0.000001 
C        0.000000   -0.665348   -0.000001 
H       -0.924311    1.237390    0.000003 
H        0.924311    1.237390    0.000003 
H        0.924311   -1.237390    0.000003 
H       -0.924311   -1.237390    0.000003 
*

%maxcore 5000

%pal
nprocs = 28
end

