#
# MOR18_ed37 ri-DSD-BLYP/2013-D3BJ/Def2-TZVPPD
#
! rijk ri-dsd-blyp/2013 d3bj def2-tzvppd def2/jk def2-tzvppd/c grid4 nofinalgrid

*xyz 0 1
Mo      -0.098072   -0.000113   -0.000040 
O       -1.958568   -1.162297    2.254949 
C       -1.292076   -0.726548    1.409379 
C       -1.290510    1.584735   -0.075353 
O       -1.955816    2.535729   -0.120716 
C       -1.292074   -0.856985   -1.334180 
O       -1.958517   -1.371361   -2.134397 
C        1.772262   -1.255233   -0.664863 
C        1.773533   -1.210923    0.743855 
C        1.772126    0.051067    1.419259 
C        1.773764    1.248901    0.676519 
C        1.772513    1.202801   -0.754108 
C        1.773865   -0.039338   -1.420099 
H        1.752441   -2.209415   -1.178166 
H        1.754475   -2.130485    1.316775 
H        1.752160    0.083668    2.502258 
H        1.754801    2.204840    1.186440 
H        1.752821    2.124408   -1.323840 
H        1.755108   -0.075692   -2.502938 
*

%maxcore 5000

%pal
nprocs = 24
end

