#
# MOR33_pr28 ri-DSD-BLYP/2013-D3BJ/Def2-TZVPPD
#
! rijk ri-dsd-blyp/2013 d3bj def2-tzvppd def2/jk def2-tzvppd/c grid4 nofinalgrid

*xyz 0 1
C        1.962238    1.228976    0.498763 
C        1.599117    0.285883    1.541183 
C        2.190996   -0.926462   -0.368778 
C        2.300550    0.493131   -0.671789 
C        2.081248    2.713946    0.664976 
H        1.434728    3.080045    1.466376 
H        1.821015    3.245065   -0.254703 
H        3.112287    2.986784    0.927647 
C        2.741378    1.051608   -1.988266 
H        2.535990    2.123448   -2.051886 
H        2.213045    0.558789   -2.809947 
H        3.820515    0.902993   -2.128525 
C        2.527241   -2.035347   -1.317221 
H        3.613873   -2.134320   -1.446849 
H        2.080344   -1.846887   -2.298459 
H        2.144835   -2.993343   -0.953257 
C        1.716574   -2.315630    1.788054 
H        2.711935   -2.577282    2.171299 
H        1.368788   -3.152284    1.175589 
H        1.050088   -2.217418    2.648594 
C        1.340513    0.619038    2.979845 
H        2.276059    0.647386    3.557074 
H        0.683714   -0.121696    3.445256 
H        0.861589    1.596880    3.080055 
Ru       0.207249   -0.005545   -0.119227 
Cl      -0.429544   -0.245973   -2.480800 
P       -1.456891    1.528216    0.068580 
C       -1.650760    2.737817   -1.304822 
H       -1.703179    2.179367   -2.242601 
H       -0.763254    3.377318   -1.338338 
H       -2.542801    3.360896   -1.175052 
C       -1.549065    2.651656    1.528190 
H       -2.472379    3.241595    1.506577 
H       -0.697323    3.336564    1.527717 
H       -1.520496    2.059136    2.446687 
C       -3.144680    0.720288    0.161598 
H       -3.432756    0.709722    1.219807 
H       -3.887248    1.321720   -0.374189 
C        1.787636   -1.042026    1.001372 
P       -1.484414   -1.469966    0.216463 
H       -2.382409   -3.625079   -0.568542 
H       -0.624918   -3.689033   -0.270965 
H       -1.236340   -2.863867   -1.723131 
C       -3.065590   -0.710530   -0.380679 
C       -1.439182   -3.076884   -0.670420 
C       -1.931261   -2.000447    1.926464 
H       -2.988264   -0.701756   -1.472521 
H       -3.935017   -1.311110   -0.088429 
H       -1.104361   -2.563780    2.366010 
H       -2.827619   -2.630913    1.925421 
H       -2.109292   -1.117280    2.546403 
*

%maxcore 5000

%pal
nprocs = 24
end

