#
# TMB01_R2 ri-DSD-BLYP/2013-D3BJ/Def2-TZVPPD
#
! rijk ri-dsd-blyp/2013 d3bj def2-tzvppd def2/jk def2-tzvppd/c grid4 nofinalgrid

*xyz 0 1
C        0.000000    0.000000    0.598253 
C        0.000000    0.000000   -0.598253 
H        0.000000    0.000000    1.662161 
H        0.000000    0.000000   -1.662161 
*

%maxcore 5000

%pal
nprocs = 28
end

