#
# TMB08_C1 ri-DSD-BLYP/2013-D3BJ/Def2-TZVPPD
#
! rijk ri-dsd-blyp/2013 d3bj def2-tzvppd def2/jk def2-tzvppd/c grid4 nofinalgrid

*xyz -1 1
O       -0.906881    0.014085    1.547895 
Mo       0.376053    0.005978   -0.001071 
O       -1.663172   -0.405524   -0.725982 
S        1.900189   -1.271673    1.262125 
C        2.414735   -2.638587    0.321741 
C        1.961707   -2.798175   -0.938062 
S        0.862636   -1.648766   -1.631530 
S        1.558394    1.801029    0.984387 
C        1.596911    3.127556   -0.137889 
C        1.038164    3.004113   -1.358311 
S        0.284978    1.511994   -1.829576 
S       -2.828559   -0.609282    0.265517 
C       -3.471491    1.031204    0.628759 
H       -2.700467    1.513975    1.240208 
H       -3.606824    1.576556   -0.316000 
H       -4.419892    0.937929    1.179101 
C       -4.093537   -1.069425   -0.932883 
H       -3.796770   -2.046338   -1.337942 
H       -5.068961   -1.152599   -0.429186 
H       -4.123504   -0.329731   -1.745777 
C       -0.609178    0.103975    2.901511 
H       -0.060534    1.039756    3.130388 
H       -1.547958    0.094647    3.495802 
H        0.020434   -0.743420    3.237520 
H        2.283338   -3.631534   -1.572173 
H        3.135734   -3.322762    0.781228 
H        1.069667    3.809818   -2.099793 
H        2.115872    4.037362    0.182319 
*

%maxcore 5000

%pal
nprocs = 28
end

