#
# TMD14_Zn ri-DSD-BLYP/2013-D3BJ/Def2-TZVPPD
#
! rijk ri-dsd-blyp/2013 d3bj def2-tzvppd def2/jk def2-tzvppd/c grid4 nofinalgrid

*xyz 0 1
Zn       0.000000    0.000000    0.000000 
*

%maxcore 5000

%pal
nprocs = 28
end

