#
# TMD20_FeS ri-DSD-BLYP/2013-D3BJ/Def2-TZVPPD
#
! rijk ri-dsd-blyp/2013 d3bj def2-tzvppd def2/jk def2-tzvppd/c grid4 nofinalgrid

*xyz 0 5
Fe       0.000000    0.000000    0.769524 
S        0.000000    0.000000   -1.250476 
*

%maxcore 5000

%pal
nprocs = 28
end

