#
# TMD21_CoH ri-DSD-BLYP/2013-D3BJ/Def2-TZVPPD
#
! rijk ri-dsd-blyp/2013 d3bj def2-tzvppd def2/jk def2-tzvppd/c grid4 nofinalgrid

*xyz 0 3
Co       0.000000    0.000000    0.053929 
H        0.000000    0.000000   -1.456071 
*

%maxcore 5000

%pal
nprocs = 24
end

