#
# MOR01_accl wB97M-V/Def2-TZVPPD
#
! wb97m-v def2-tzvppd def2/jk grid4 nofinalgrid

*xyz 0 1
C        1.306659   -1.017500   -0.000028 
C        0.488515    0.240833   -0.000079 
H        2.367301   -0.760167   -0.001300 
H        1.052624   -1.613812   -0.881062 
H        1.054555   -1.612076    0.882774 
O        0.865971    1.367720    0.000018 
Cl      -1.304312   -0.135041    0.000005 
*

%maxcore 5000

%pal
nprocs = 24
end

