#
# MOR05_co wB97M-V/Def2-TZVPPD
#
! wb97m-v def2-tzvppd def2/jk grid4 nofinalgrid

*xyz 0 1
O        0.000000    0.000000    0.486237 
C        0.000000    0.000000   -0.648315 
*

%maxcore 5000

%pal
nprocs = 24
end

