#
# MOR19_h2 wB97M-V/Def2-TZVPPD
#
! wb97m-v def2-tzvppd def2/jk grid4 nofinalgrid

*xyz 0 1
H        0.000000    0.000000    0.371761 
H        0.000000    0.000000   -0.371761 
*

%maxcore 5000

%pal
nprocs = 24
end

