#
# MOR22_pcy3 wB97M-V/Def2-TZVPPD
#
! wb97m-v def2-tzvppd def2/jk grid4 nofinalgrid

*xyz 0 1
P       -0.216171   -0.083077   -1.104749 
C        0.505342    1.551445   -0.512411 
C        0.372168    1.952615    0.967298 
C        0.853698    3.397029    1.180070 
C        2.300662    3.578910    0.704200 
C        2.457928    3.151362   -0.760734 
C        1.965268    1.712769   -0.974950 
C        0.795470   -1.465851   -0.339173 
C        1.194026   -1.376002    1.141683 
C        1.830829   -2.691519    1.617818 
C        3.044522   -3.062049    0.755351 
C        2.669205   -3.127202   -0.731177 
C        2.022807   -1.816580   -1.203888 
C       -1.786787   -0.169467   -0.086099 
C       -2.713096    0.996882   -0.481425 
C       -4.042154    0.954203    0.285800 
C       -4.758728   -0.385405    0.080261 
C       -3.846658   -1.555269    0.467941 
C       -2.516136   -1.508613   -0.298163 
H       -0.086881    2.275758   -1.095374 
H        0.969845    1.279400    1.591405 
H       -0.665694    1.858440    1.303963 
H        0.763179    3.670246    2.238833 
H        0.199154    4.078898    0.617939 
H        2.616561    4.621342    0.833145 
H        2.964320    2.965719    1.331124 
H        1.874427    3.827995   -1.401227 
H        3.505668    3.240568   -1.073514 
H        2.061196    1.427054   -2.029468 
H        2.603163    1.029346   -0.398698 
H        0.103060   -2.317100   -0.439871 
H        1.082328   -3.494681    1.556078 
H        0.325749   -1.129652    1.763601 
H        1.922184   -0.564787    1.270256 
H        2.123181   -2.608981    2.672179 
H        3.467034   -4.019422    1.084011 
H        3.828662   -2.303820    0.895790 
H        3.555664   -3.350052   -1.337889 
H        1.959466   -3.952268   -0.888607 
H        1.724465   -1.892063   -2.255831 
H        2.762591   -1.008464   -1.141586 
H       -1.543753   -0.076214    0.982532 
H       -2.216101    1.957671   -0.306445 
H       -2.910289    0.936504   -1.561343 
H       -3.843829    1.098520    1.357699 
H       -4.683867    1.784681   -0.033466 
H       -5.041866   -0.483893   -0.977569 
H       -5.687452   -0.415984    0.663015 
H       -4.350272   -2.511559    0.279900 
H       -3.640750   -1.510603    1.547174 
H       -1.884435   -2.344750    0.021762 
H       -2.704341   -1.645246   -1.372687 
*

%maxcore 5000

%pal
nprocs = 28
end

