#
# MOR29_pr11 wB97M-V/Def2-TZVPPD
#
! wb97m-v def2-tzvppd def2/jk grid4 nofinalgrid

*xyz 0 1
C       -1.039290   -2.639432    0.178033 
C       -2.178017   -3.305635   -0.258724 
C       -3.296391   -2.550827   -0.605540 
C       -3.231094   -1.166811   -0.503382 
H       -0.140242   -3.178187    0.457229 
H       -2.180740   -4.388297   -0.324253 
H       -4.206388   -3.031472   -0.950846 
H       -4.092575   -0.563880   -0.765153 
N       -0.970920   -1.306381    0.272680 
C       -2.050199   -0.559703   -0.062217 
C       -1.896627    0.903347    0.053727 
N       -0.715899    1.344389    0.547476 
C       -0.493208    2.660516    0.650101 
C       -2.657172    3.172580   -0.229603 
C       -1.435330    3.611046    0.276469 
H        0.481431    2.944320    1.031789 
H       -1.207232    4.666962    0.373432 
C       -2.888209    1.807210   -0.342538 
H       -3.826394    1.449184   -0.749672 
H       -3.416704    3.882938   -0.540755 
Pd       0.796966   -0.183618    0.920224 
C        2.296006    1.038742    1.594093 
H        1.829551    1.776866    2.255021 
H        2.734263    1.506656    0.710942 
H        3.050202    0.480142    2.149825 
C        2.162541   -1.690695    1.159536 
H        3.086547   -1.399047    0.660601 
H        1.744149   -2.568037    0.656862 
H        2.334771   -1.896294    2.218292 
I        1.451603    0.093477   -1.772045 
C        0.284011   -0.444486    2.913651 
H       -0.123661   -1.453796    3.016265 
H       -0.476481    0.304111    3.153737 
H        1.159721   -0.321172    3.551993 
*

%maxcore 5000

%pal
nprocs = 28
end

