#
# MOR34_pr35 wB97M-V/Def2-TZVPPD
#
! wb97m-v def2-tzvppd def2/jk grid4 nofinalgrid

*xyz 0 1
Ru       0.569145    0.005836    0.165179 
Se      -1.577691    0.219302   -1.256403 
P        2.150844   -0.339975    1.751510 
P        1.960774    0.268717   -1.689611 
P        0.209152    2.312844    0.427199 
P        0.201777   -2.273734   -0.170115 
C       -3.165297    0.017396   -0.190307 
C       -4.394132    0.053132   -0.874133 
C       -5.595730   -0.078160   -0.183035 
C       -5.602894   -0.248979    1.204636 
C       -4.386994   -0.285335    1.887322 
C       -3.179536   -0.153593    1.200055 
C        2.835775    1.024261    2.797241 
C        3.776990   -1.134294    1.350685 
C        1.582544   -1.410719    3.147602 
C        1.189258    0.640725   -3.324662 
C        3.233820    1.610023   -1.608962 
C        3.088037   -1.102636   -2.218553 
C       -1.285561    2.723129    1.411363 
C        1.411100    3.483245    1.220886 
C       -0.106458    3.317190   -1.091179 
C       -1.203048   -2.960414    0.792609 
C        1.495583   -3.557062    0.180127 
C       -0.249251   -2.863510   -1.860160 
H       -0.380046   -0.139952    1.501494 
H       -4.399385    0.184833   -1.953205 
H       -6.533440   -0.047821   -0.732848 
H       -6.541373   -0.352173    1.741881 
H       -4.372710   -0.417664    2.966984 
H       -2.231572   -0.183831    1.730627 
H        2.021868    1.525326    3.326216 
H        3.360848    1.757391    2.181578 
H        3.533951    0.611895    3.534364 
H        4.357450   -0.458164    0.715432 
H        3.629968   -2.070962    0.811827 
H        4.349762   -1.333108    2.263576 
H        0.778593   -0.879257    3.663997 
H        2.395525   -1.623101    3.851423 
H        1.170731   -2.350778    2.777081 
H        1.942377    0.770617   -4.110078 
H        0.580686    1.544719   -3.247034 
H        0.519142   -0.181425   -3.592607 
H        3.848415    1.640003   -2.515852 
H        3.881269    1.436754   -0.744032 
H        2.749674    2.580347   -1.477575 
H        3.680607   -0.803573   -3.090502 
H        2.506614   -1.989838   -2.479223 
H        3.765021   -1.364235   -1.402566 
H       -1.422862    3.807855    1.484184 
H       -1.180491    2.295670    2.412101 
H       -2.158099    2.270920    0.935224 
H        1.060677    4.511234    1.077988 
H        2.402787    3.383240    0.772277 
H        1.491749    3.290644    2.291344 
H       -0.430215    4.323980   -0.805953 
H       -0.883917    2.832935   -1.685612 
H        0.806667    3.401312   -1.686904 
H       -1.338643   -4.028887    0.591012 
H       -2.108817   -2.414477    0.518490 
H       -1.024200   -2.804556    1.859563 
H        1.083825   -4.556345    0.001539 
H        1.848365   -3.505467    1.212021 
H        2.350340   -3.408454   -0.485526 
H       -0.446095   -3.940916   -1.837012 
H        0.566038   -2.668527   -2.561627 
H       -1.135395   -2.323383   -2.198214 
*

%maxcore 5000

%pal
nprocs = 28
end

