#
# TMB08_T1 wB97M-V/Def2-TZVPPD
#
! wb97m-v def2-tzvppd def2/jk grid4 nofinalgrid

*xyz -1 1
O       -0.864683   -0.641223    1.501083 
Mo       0.288309   -0.030923   -0.005993 
O       -1.184159   -0.828813   -0.891579 
S        2.210721   -0.462566    1.360243 
C        3.288131   -1.501862    0.490518 
C        2.967024   -1.951648   -0.740634 
S        1.453819   -1.539049   -1.466752 
S        0.162904    2.082815    1.150192 
C        0.198674    3.373932   -0.002877 
C        0.341525    3.101047   -1.316307 
S        0.442237    1.474962   -1.896418 
S       -2.702756   -1.277235    0.090908 
C       -3.341924    0.299743    0.636465 
H       -3.337931    0.314090    1.732942 
H       -2.648387    1.079744    0.273451 
H       -4.358042    0.459892    0.247281 
C       -3.587204   -1.408361   -1.466934 
H       -3.173718   -2.281309   -1.989593 
H       -4.662596   -1.555426   -1.282985 
H       -3.398030   -0.511824   -2.074907 
C       -0.765264   -0.491871    2.877457 
H       -0.827293    0.572940    3.181404 
H       -1.595209   -1.039646    3.369476 
H        0.192972   -0.897436    3.256104 
H        3.640777   -2.597035   -1.314559 
H        4.229728   -1.767232    0.982509 
H        0.401774    3.897233   -2.066529 
H        0.141166    4.396366    0.384198 
*

%maxcore 5000

%pal
nprocs = 24
end

