#
# TMB06_C1 wB97M-V/Def2-TZVPPD
#
! wb97m-v def2-tzvppd def2/jk grid4 nofinalgrid

*xyz -2 1
C       -4.922177    0.231539    2.107663 
C       -4.446966   -0.260950    0.727306 
O       -4.786048   -1.445661    0.381045 
O       -3.774664    0.534657    0.034272 
C        2.853834    2.539483    0.111094 
S        1.699014    2.002949   -1.213407 
C        2.621388   -0.654255    2.558361 
S        1.079319    0.109893    2.243750 
C        3.475179   -0.966107    1.545638 
S        3.017258   -0.732048   -0.112289 
C       -0.719852   -2.060810   -2.434513 
S        0.476784   -0.759924   -2.482057 
C       -1.165423   -2.576996   -1.263023 
S       -0.426778   -2.115489    0.280596 
W        0.581769    0.074169   -0.056710 
O       -3.686516    3.100880   -0.970074 
C       -0.958024    1.126222    0.768552 
C       -1.050846    1.201510   -0.527136 
H       -4.399031   -0.338057    2.886550 
H       -4.651123    1.285347    2.215183 
H        2.286624    2.922259    0.966567 
H        3.439558    1.684807    0.443645 
H       -3.719098    2.271105   -0.448699 
H       -4.432659    3.004669   -1.574445 
H       -1.423366    1.443209    1.691261 
H       -1.628538    1.662411   -1.315772 
H       -1.080680   -2.444086   -3.386693 
H       -2.006521   -3.265324   -1.212989 
H        3.558044    3.288012   -0.266819 
H        2.852091   -0.869929    3.599516 
H        4.480661   -1.317935    1.766923 
H       -6.001258    0.102048    2.241238 
*

%maxcore 5000

%pal
nprocs = 28
end

