#
# TMB20_C1 wB97M-V/Def2-TZVPPD
#
! wb97m-v def2-tzvppd def2/jk grid4 nofinalgrid

*xyz 0 1
Re      -1.072665    0.212376   -0.034636 
C       -1.072260   -0.271683    1.857255 
C       -2.882577   -0.347239   -0.151918 
C       -1.671800    1.974535    0.387813 
Br      -0.106106   -2.222959   -0.227559 
O       -2.042355    3.032773    0.649150 
O       -1.092539   -0.543239    2.965184 
O       -3.977345   -0.680746   -0.233754 
C       -1.097144    1.301488   -2.052782 
C       -0.757943    0.130940   -2.251371 
C        3.116548    1.792974   -0.035452 
C        3.822495    0.593532    0.034050 
O        3.256440   -0.568022    0.077602 
O        5.128051    0.619793    0.055969 
C        1.730040    1.757413   -0.054388 
O        1.074850    0.675289   -0.001074 
H        2.259004   -0.423965    0.051981 
C        5.826586   -0.629933    0.127198 
H        6.879482   -0.365214    0.136783 
H        5.557636   -1.164457    1.037079 
H        5.594141   -1.245208   -0.740821 
H       -0.446457   -0.764543   -2.749196 
H        3.656243    2.725032   -0.072675 
H       -1.374127    2.315189   -2.254725 
H        1.177176    2.699572   -0.113184 
*

%maxcore 5000

%pal
nprocs = 24
end

