#
# TMD04_S wB97M-V/Def2-TZVPPD
#
! wb97m-v def2-tzvppd def2/jk grid4 nofinalgrid

*xyz 0 3
S        0.000000    0.000000    0.000000 
*

%maxcore 5000

%pal
nprocs = 28
end

