#
# TMD21_CoH wB97M-V/Def2-TZVPPD
#
! wb97m-v def2-tzvppd def2/jk grid4 nofinalgrid

*xyz 0 3
Co       0.000000    0.000000    0.053929 
H        0.000000    0.000000   -1.456071 
*

%maxcore 5000

%pal
nprocs = 24
end

