#
# TMD24_ZnS wB97M-V/Def2-TZVPPD
#
! wb97m-v def2-tzvppd def2/jk grid4 nofinalgrid

*xyz 0 1
Zn       0.000000    0.000000    0.720000 
S        0.000000    0.000000   -1.350000 
*

%maxcore 5000

%pal
nprocs = 24
end

